n = 42;
c_i = [1, 3, 10, 3, 10, 3, 2, 9, 6, 5, 3, 10, 6, 4, 4, 1, 5, 1, 1, 8, 10, 4, 2, 1, 7, 6, 10, 3, 5, 5, 8, 6, 4, 5, 1, 1, 5, 5, 3, 10, 9, 5];
w_i = [6, 4, 6, 2, 5, 2, 9, 8, 2, 5, 1, 10, 8, 4, 7, 6, 4, 10, 10, 2, 2, 5, 9, 1, 4, 6, 4, 7, 5, 10, 9, 9, 4, 6, 5, 8, 10, 3, 4, 1, 6, 2];
v_i = [8, 2, 6, 9, 3, 4, 6, 1, 9, 5, 1, 8, 7, 3, 4, 2, 2, 6, 5, 6, 7, 8, 9, 2, 3, 2, 8, 10, 10, 4, 8, 6, 4, 7, 5, 4, 2, 5, 8, 5, 2, 9];
B = 91;
